NAME: n300q10H.tsp, 300 nodes, semilla 777
COMMENT: Problema aleatorio de norma euclidea
DIMENSION: 300
CAPACITY: 10
EDGE_WEIGHT_TYPE: EUC_2D
NODE_COORD_SECTION
1   0.0000   0.0000
2 -108.0000  76.0000
3 372.0000 -432.0000
4 -57.0000 388.0000
5 286.0000 409.0000
6 424.0000 169.0000
7  58.0000 -497.0000
8 221.0000 118.0000
9 470.0000 380.0000
10 -431.0000 -422.0000
11 305.0000 -58.0000
12 457.0000 196.0000
13 493.0000 269.0000
14 281.0000 -259.0000
15 -172.0000 -484.0000
16 263.0000 -258.0000
17 -427.0000 153.0000
18 351.0000 314.0000
19 478.0000 120.0000
20 -415.0000 -203.0000
21  20.0000 -92.0000
22 113.0000 237.0000
23  57.0000 447.0000
24 -322.0000 -129.0000
25 253.0000 -27.0000
26 -387.0000 -243.0000
27 -72.0000 212.0000
28 246.0000 -337.0000
29  71.0000 279.0000
30 351.0000 -457.0000
31 253.0000 100.0000
32 -65.0000  26.0000
33 324.0000 -23.0000
34 -354.0000 -28.0000
35 332.0000 270.0000
36 276.0000 -117.0000
37 -389.0000 -49.0000
38 191.0000 -497.0000
39 189.0000 -47.0000
40 361.0000 -152.0000
41 -322.0000 -497.0000
42 -320.0000 248.0000
43 -50.0000 -235.0000
44 143.0000 -206.0000
45 -459.0000 365.0000
46 -370.0000 -388.0000
47 311.0000 264.0000
48 382.0000  49.0000
49 -463.0000 -424.0000
50 -408.0000 354.0000
51 109.0000  -5.0000
52 -410.0000 -226.0000
53 -286.0000 306.0000
54 162.0000 -185.0000
55 -248.0000 395.0000
56 477.0000 120.0000
57 466.0000 -460.0000
58 155.0000 243.0000
59 -324.0000 -359.0000
60 -283.0000 335.0000
61 -121.0000  87.0000
62 -194.0000 371.0000
63 275.0000 -94.0000
64 -349.0000 348.0000
65 -59.0000 -76.0000
66 -91.0000 -227.0000
67 -223.0000 399.0000
68 321.0000 -473.0000
69 162.0000 325.0000
70 -335.0000 -362.0000
71 295.0000 -114.0000
72 -316.0000 -313.0000
73 -488.0000   2.0000
74 252.0000 -289.0000
75 -30.0000 -153.0000
76 215.0000 422.0000
77 -226.0000 -107.0000
78 400.0000 -212.0000
79 -255.0000 120.0000
80 -458.0000 386.0000
81 368.0000 -346.0000
82  77.0000 156.0000
83 -438.0000 -70.0000
84 171.0000 357.0000
85 -38.0000 -216.0000
86 -130.0000 -21.0000
87 397.0000 -422.0000
88 -379.0000  13.0000
89 -111.0000 -302.0000
90 -212.0000 467.0000
91 -49.0000 -336.0000
92 100.0000 -115.0000
93  18.0000  47.0000
94  -6.0000 143.0000
95  40.0000 -189.0000
96 -233.0000  91.0000
97 -175.0000 -250.0000
98 -288.0000 -97.0000
99 -291.0000 -69.0000
100 -170.0000 -56.0000
101 459.0000 -494.0000
102 312.0000 391.0000
103 424.0000 286.0000
104 144.0000 187.0000
105 -228.0000 -213.0000
106 -356.0000 -128.0000
107 -237.0000 108.0000
108  54.0000 -50.0000
109  42.0000 468.0000
110 310.0000 261.0000
111 273.0000 -453.0000
112  22.0000 247.0000
113 192.0000 -221.0000
114 494.0000 -202.0000
115 -203.0000  92.0000
116 -263.0000 129.0000
117 -59.0000 -27.0000
118 -409.0000 -31.0000
119   0.0000 403.0000
120  21.0000  -8.0000
121 282.0000 -449.0000
122 298.0000 292.0000
123 -193.0000 -301.0000
124 204.0000 -160.0000
125 223.0000 197.0000
126 130.0000 277.0000
127 -117.0000 -64.0000
128 -13.0000 407.0000
129 -473.0000 -497.0000
130 167.0000 -366.0000
131 -184.0000  -5.0000
132 244.0000 447.0000
133 335.0000  15.0000
134 -324.0000 121.0000
135 -458.0000 -246.0000
136 -460.0000 445.0000
137 -125.0000 -380.0000
138  64.0000 -287.0000
139  43.0000 157.0000
140 -107.0000 -364.0000
141 -191.0000 -142.0000
142 304.0000 -361.0000
143 -273.0000  89.0000
144 254.0000 -486.0000
145 -245.0000 -40.0000
146 379.0000 282.0000
147 158.0000  33.0000
148 150.0000 -174.0000
149 210.0000 -415.0000
150 -171.0000 335.0000
151 -278.0000 433.0000
152 -331.0000 417.0000
153 -282.0000 283.0000
154  85.0000 -106.0000
155 -314.0000   9.0000
156 451.0000 -351.0000
157 -313.0000 499.0000
158 279.0000 107.0000
159 292.0000 320.0000
160 167.0000 137.0000
161 -17.0000 383.0000
162 306.0000 159.0000
163 -136.0000 -434.0000
164 -455.0000 -342.0000
165 309.0000 -246.0000
166 -85.0000 -124.0000
167 235.0000 -496.0000
168 -408.0000 244.0000
169 -149.0000 180.0000
170 104.0000 140.0000
171 -23.0000 448.0000
172 117.0000 351.0000
173 153.0000 216.0000
174 -130.0000 450.0000
175  19.0000 211.0000
176 286.0000 379.0000
177 -47.0000 -180.0000
178 -43.0000 223.0000
179 -394.0000 -310.0000
180 -108.0000 264.0000
181 -287.0000 484.0000
182 166.0000 319.0000
183 -199.0000 305.0000
184 -59.0000 -42.0000
185 -44.0000 -465.0000
186 -301.0000 -398.0000
187 411.0000 242.0000
188 -349.0000 375.0000
189 144.0000 -472.0000
190 423.0000 284.0000
191 139.0000  83.0000
192 315.0000 432.0000
193  49.0000 207.0000
194 474.0000 -20.0000
195 -225.0000 -228.0000
196 407.0000 -109.0000
197 213.0000 -451.0000
198 343.0000 -215.0000
199 -66.0000 138.0000
200 101.0000 -16.0000
201 118.0000 228.0000
202 -491.0000 -328.0000
203 277.0000 -177.0000
204 -275.0000 -417.0000
205 -228.0000 -459.0000
206 417.0000 -233.0000
207 -323.0000 224.0000
208  15.0000 488.0000
209 296.0000 -169.0000
210 -470.0000 -450.0000
211  19.0000 -387.0000
212 -478.0000 -52.0000
213 242.0000 383.0000
214 108.0000 240.0000
215 400.0000 -187.0000
216 134.0000 209.0000
217 -164.0000 490.0000
218 -226.0000 -409.0000
219 -345.0000 -337.0000
220  -5.0000 466.0000
221  20.0000 477.0000
222 -372.0000 373.0000
223 -87.0000 -38.0000
224 -480.0000 -404.0000
225 -106.0000 -363.0000
226 -66.0000  60.0000
227 -452.0000 -411.0000
228 118.0000 -462.0000
229 335.0000 304.0000
230 -113.0000 -106.0000
231  -9.0000 -128.0000
232 -446.0000 -319.0000
233 476.0000 -94.0000
234 102.0000 -91.0000
235 344.0000 -31.0000
236 -434.0000 -27.0000
237 281.0000 217.0000
238 200.0000 117.0000
239 382.0000  56.0000
240 488.0000 -197.0000
241 146.0000 386.0000
242 -212.0000 413.0000
243 -177.0000 -260.0000
244 289.0000 -307.0000
245 206.0000 -320.0000
246   6.0000 -429.0000
247 -476.0000 363.0000
248 -145.0000 377.0000
249 -186.0000 484.0000
250 -371.0000 -43.0000
251 472.0000 -313.0000
252 -476.0000 -14.0000
253 -414.0000 456.0000
254 109.0000 -440.0000
255 -51.0000 -157.0000
256 253.0000 -451.0000
257 -163.0000 259.0000
258 -434.0000 -100.0000
259 103.0000 378.0000
260 -420.0000 141.0000
261 -492.0000 305.0000
262  91.0000 101.0000
263 -162.0000  72.0000
264 -249.0000 -32.0000
265 -197.0000 280.0000
266 -373.0000 140.0000
267 424.0000 495.0000
268 406.0000 -224.0000
269 376.0000 -220.0000
270 -373.0000 108.0000
271 197.0000 -445.0000
272 137.0000 203.0000
273 -450.0000 491.0000
274 -429.0000 278.0000
275 130.0000  86.0000
276 -249.0000 235.0000
277 -301.0000 321.0000
278 364.0000 -370.0000
279 -202.0000 -250.0000
280 -368.0000 286.0000
281 267.0000   6.0000
282 -336.0000 -356.0000
283  72.0000 -190.0000
284 197.0000 -385.0000
285 -269.0000 123.0000
286 -69.0000 412.0000
287 -265.0000 232.0000
288 370.0000 -404.0000
289 -186.0000 -31.0000
290 -366.0000 -75.0000
291 -24.0000 418.0000
292 -221.0000  94.0000
293 -285.0000 226.0000
294 -117.0000 149.0000
295  60.0000 -44.0000
296 -124.0000 -140.0000
297 -331.0000 -275.0000
298 -91.0000 500.0000
299 -385.0000  88.0000
300 -137.0000 -136.0000
DISPLAY_DATA_SECTION:
 1  250  250
 2  196  288
 3  436   34
 4  221  444
 5  393  454
 6  462  334
 7  279    1
 8  360  309
 9  485  440
10   34   39
11  402  221
12  478  348
13  496  384
14  390  120
15  164    8
16  381  121
17   36  326
18  425  407
19  489  310
20   42  148
21  260  204
22  306  368
23  278  473
24   89  185
25  376  236
26   56  128
27  214  356
28  373   81
29  285  389
30  425   21
31  376  300
32  217  263
33  412  238
34   73  236
35  416  385
36  388  191
37   55  225
38  345    1
39  344  226
40  430  174
41   89    1
42   90  374
43  225  132
44  321  147
45   20  432
46   65   56
47  405  382
48  441  274
49   18   38
50   46  427
51  304  247
52   45  137
53  107  403
54  331  157
55  126  447
56  488  310
57  483   20
58  327  371
59   88   70
60  108  417
61  189  293
62  153  435
63  387  203
64   75  424
65  220  212
66  204  136
67  138  449
68  410   13
69  331  412
70   82   69
71  397  193
72   92   93
73    6  251
74  376  105
75  235  173
76  357  461
77  137  196
78  450  144
79  122  310
80   21  443
81  434   77
82  288  328
83   31  215
84  335  428
85  231  142
86  185  239
87  448   39
88   60  256
89  194   99
90  144  483
91  225   82
92  300  192
93  259  273
94  247  321
95  270  155
96  133  295
97  162  125
98  106  201
99  104  215
100  165  222
101  479    3
102  406  445
103  462  393
104  322  343
105  136  143
106   72  186
107  131  304
108  277  225
109  271  484
110  405  380
111  386   23
112  261  373
113  346  139
114  497  149
115  148  296
116  118  314
117  220  236
118   45  234
119  250  451
120  260  246
121  391   25
122  399  396
123  153   99
124  352  170
125  361  348
126  315  388
127  191  218
128  243  453
129   13    1
130  333   67
131  158  247
132  372  473
133  417  257
134   88  310
135   21  127
136   20  472
137  187   60
138  282  106
139  271  328
140  196   68
141  154  179
142  402   69
143  113  294
144  377    7
145  127  230
146  439  391
147  329  266
148  325  163
149  355   42
150  164  417
151  111  466
152   84  458
153  109  391
154  292  197
155   93  254
156  475   74
157   93  499
158  389  303
159  396  410
160  333  318
161  241  441
162  403  329
163  182   33
164   22   79
165  404  127
166  207  188
167  367    2
168   46  372
169  175  340
170  302  320
171  238  474
172  308  425
173  326  358
174  185  475
175  259  355
176  393  439
177  226  160
178  228  361
179   53   95
180  196  382
181  106  492
182  333  409
183  150  402
184  220  229
185  228   17
186   99   51
187  455  371
188   75  437
189  322   14
190  461  392
191  319  291
192  407  466
193  274  353
194  487  240
195  137  136
196  453  195
197  356   24
198  421  142
199  217  319
200  300  242
201  309  364
202    4   86
203  388  161
204  112   41
205  136   20
206  458  133
207   88  362
208  257  494
209  398  165
210   15   25
211  259   56
212   11  224
213  371  441
214  304  370
215  450  156
216  317  354
217  168  495
218  137   45
219   77   81
220  247  483
221  260  488
222   64  436
223  206  231
224   10   48
225  197   68
226  217  280
227   24   44
228  309   19
229  417  402
230  193  197
231  245  186
232   27   90
233  488  203
234  301  204
235  422  234
236   33  236
237  390  358
238  350  308
239  441  278
240  494  151
241  323  443
242  144  456
243  161  120
244  394   96
245  353   90
246  253   35
247   12  431
248  177  438
249  157  492
250   64  228
251  486   93
252   12  243
253   43  478
254  304   30
255  224  171
256  376   24
257  168  379
258   33  200
259  301  439
260   40  320
261    4  402
262  295  300
263  169  286
264  125  234
265  151  390
266   63  320
267  462  497
268  453  138
269  438  140
270   63  304
271  348   27
272  318  351
273   25  495
274   35  389
275  315  293
276  125  367
277   99  410
278  432   65
279  149  125
280   66  393
281  383  253
282   82   72
283  286  155
284  348   57
285  115  311
286  215  456
287  117  366
288  435   48
289  157  234
290   67  212
291  238  459
292  139  297
293  107  363
294  191  324
295  280  228
296  188  180
297   84  112
298  204  500
299   57  294
300  181  182
DEMAND_SECTION
1 0
2 -4
3 -9
4 -3
5 0
6 -6
7 -1
8 9
9 2
10 5
11 9
12 -1
13 1
14 -8
15 1
16 4
17 4
18 10
19 -2
20 3
21 9
22 1
23 6
24 10
25 10
26 8
27 -2
28 -1
29 -4
30 -1
31 -4
32 2
33 -7
34 -8
35 -8
36 -9
37 0
38 0
39 9
40 5
41 -4
42 5
43 -7
44 9
45 -3
46 -8
47 -6
48 1
49 -6
50 0
51 -7
52 -2
53 2
54 -8
55 8
56 -6
57 4
58 -1
59 -6
60 0
61 5
62 0
63 4
64 -7
65 1
66 -4
67 4
68 0
69 -4
70 -2
71 5
72 1
73 -8
74 -7
75 -8
76 -9
77 -1
78 -2
79 -4
80 4
81 0
82 -6
83 -10
84 -7
85 -7
86 1
87 9
88 8
89 -3
90 3
91 8
92 -3
93 8
94 -9
95 5
96 -7
97 4
98 7
99 -3
100 -7
101 10
102 9
103 0
104 5
105 2
106 2
107 -8
108 -1
109 -1
110 1
111 8
112 -2
113 0
114 10
115 8
116 -8
117 2
118 7
119 -3
120 6
121 0
122 2
123 -3
124 7
125 -3
126 -6
127 1
128 8
129 7
130 -5
131 -9
132 -7
133 4
134 -2
135 5
136 1
137 -6
138 4
139 7
140 1
141 -5
142 -9
143 -2
144 -7
145 8
146 8
147 10
148 8
149 -8
150 -2
151 9
152 -8
153 -6
154 -8
155 -2
156 -6
157 9
158 7
159 3
160 -2
161 -7
162 4
163 -6
164 3
165 8
166 -3
167 -9
168 -5
169 4
170 -1
171 4
172 -6
173 -3
174 5
175 10
176 -6
177 4
178 -8
179 7
180 -3
181 0
182 0
183 -10
184 6
185 -9
186 6
187 9
188 0
189 -4
190 -8
191 -1
192 4
193 10
194 -5
195 10
196 0
197 6
198 -2
199 0
200 9
201 -9
202 3
203 0
204 8
205 -6
206 -9
207 2
208 -3
209 -4
210 -9
211 8
212 -4
213 -9
214 -8
215 2
216 2
217 -5
218 -2
219 -7
220 3
221 -6
222 5
223 -5
224 -8
225 1
226 -3
227 -10
228 3
229 6
230 7
231 -6
232 7
233 7
234 -2
235 -2
236 -7
237 2
238 0
239 1
240 8
241 0
242 10
243 1
244 -1
245 -9
246 7
247 -4
248 8
249 2
250 -6
251 9
252 3
253 2
254 10
255 5
256 0
257 -5
258 0
259 7
260 4
261 -5
262 0
263 8
264 -1
265 3
266 -6
267 -5
268 -4
269 -5
270 0
271 9
272 1
273 10
274 10
275 0
276 -2
277 2
278 0
279 -5
280 -3
281 0
282 -3
283 8
284 -2
285 -8
286 4
287 7
288 -8
289 10
290 -6
291 -9
292 0
293 -3
294 0
295 5
296 0
297 -5
298 -1
299 -9
300 2
EOF